certificates/rado_a9_c165_N20.cnf
c Rad2 upper bound instance: x1 + 9*x2 - x3 = 165, interval [1,20]
p cnf 20 88
1 7 19 0
-1 -7 -19 0
1 16 20 0
-1 -16 -20 0
2 8 19 0
-2 -8 -19 0
2 17 20 0
-2 -17 -20 0
3 9 19 0
-3 -9 -19 0
3 18 20 0
-3 -18 -20 0
1 4 18 0
-1 -4 -18 0
4 10 19 0
-4 -10 -19 0
4 19 20 0
-4 -19 -20 0
2 5 18 0
-2 -5 -18 0
5 11 19 0
-5 -11 -19 0
5 20 0
-5 -20 0
3 6 18 0
-3 -6 -18 0
6 12 19 0
-6 -12 -19 0
4 7 18 0
-4 -7 -18 0
7 13 19 0
-7 -13 -19 0
5 8 18 0
-5 -8 -18 0
8 14 19 0
-8 -14 -19 0
6 9 18 0
-6 -9 -18 0
9 15 19 0
-9 -15 -19 0
7 10 18 0
-7 -10 -18 0
10 16 19 0
-10 -16 -19 0
8 11 18 0
-8 -11 -18 0
11 17 19 0
-11 -17 -19 0
9 12 18 0
-9 -12 -18 0
12 18 19 0
-12 -18 -19 0
1 13 17 0
-1 -13 -17 0
10 13 18 0
-10 -13 -18 0
13 19 0
-13 -19 0
2 14 17 0
-2 -14 -17 0
11 14 18 0
-11 -14 -18 0
14 19 20 0
-14 -19 -20 0
3 15 17 0
-3 -15 -17 0
12 15 18 0
-12 -15 -18 0
4 16 17 0
-4 -16 -17 0
13 16 18 0
-13 -16 -18 0
5 17 0
-5 -17 0
14 17 18 0
-14 -17 -18 0
6 17 18 0
-6 -17 -18 0
15 18 0
-15 -18 0
7 17 19 0
-7 -17 -19 0
16 18 19 0
-16 -18 -19 0
8 17 20 0
-8 -17 -20 0
17 18 20 0
-17 -18 -20 0
