certificates/rado_a9_c165_N20.drat
-20 0
5 0
-17 0
2 0
18 0
8 0
0
